24° run output:
{
    "Function": "kroA1000.tsp",
    "Problem dimension": [
        868,
        633,
        872,
        315,
        359,
        739,
        226,
        501,
        498,
        61,
        237,
        318,
        593,
        165,
        420,
        957,
        489,
        696,
        636,
        260,
        883,
        609,
        82,
        131,
        26,
        418,
        136,
        233,
        512,
        728,
        826,
        157,
        106,
        166,
        725,
        853,
        437,
        918,
        749,
        352,
        582,
        503,
        285,
        20,
        148,
        754,
        953,
        454,
        215,
        88,
        745,
        629,
        933,
        408,
        952,
        123,
        129,
        978,
        866,
        295,
        309,
        455,
        551,
        312,
        341,
        610,
        513,
        381,
        709,
        184,
        958,
        178,
        69,
        839,
        54,
        511,
        316,
        348,
        863,
        642,
        793,
        730,
        332,
        861,
        101,
        170,
        972,
        205,
        505,
        365,
        49,
        925,
        515,
        491,
        840,
        834,
        102,
        350,
        948,
        321,
        393,
        673,
        110,
        716,
        56,
        213,
        860,
        383,
        775,
        167,
        854,
        697,
        779,
        960,
        120,
        798,
        222,
        836,
        605,
        389,
        942,
        583,
        616,
        405,
        995,
        800,
        224,
        543,
        250,
        298,
        70,
        124,
        486,
        780,
        650,
        692,
        466,
        143,
        310,
        911,
        601,
        974,
        12,
        523,
        254,
        211,
        452,
        956,
        122,
        891,
        55,
        686,
        45,
        653,
        647,
        607,
        450,
        161,
        74,
        648,
        201,
        2,
        400,
        18,
        154,
        311,
        747,
        111,
        432,
        902,
        73,
        832,
        246,
        434,
        906,
        239,
        588,
        991,
        453,
        679,
        344,
        992,
        816,
        103,
        720,
        986,
        245,
        641,
        118,
        279,
        892,
        672,
        343,
        274,
        820,
        968,
        733,
        908,
        98,
        188,
        231,
        230,
        28,
        488,
        216,
        965,
        729,
        999,
        46,
        150,
        96,
        0,
        278,
        349,
        655,
        962,
        412,
        919,
        236,
        903,
        976,
        917,
        335,
        409,
        776,
        355,
        212,
        912,
        187,
        867,
        646,
        536,
        296,
        436,
        851,
        767,
        509,
        80,
        62,
        153,
        7,
        197,
        559,
        818,
        127,
        723,
        423,
        31,
        475,
        30,
        627,
        845,
        719,
        90,
        411,
        955,
        497,
        173,
        459,
        4,
        353,
        613,
        844,
        232,
        417,
        565,
        787,
        351,
        492,
        399,
        590,
        742,
        817,
        734,
        806,
        804,
        935,
        64,
        125,
        626,
        13,
        546,
        743,
        472,
        784,
        855,
        140,
        858,
        495,
        658,
        3,
        930,
        566,
        708,
        58,
        621,
        386,
        52,
        108,
        680,
        380,
        146,
        447,
        320,
        27,
        424,
        522,
        384,
        487,
        218,
        179,
        234,
        354,
        422,
        356,
        790,
        104,
        16,
        370,
        983,
        768,
        875,
        575,
        574,
        345,
        651,
        299,
        14,
        928,
        419,
        364,
        430,
        579,
        656,
        35,
        548,
        611,
        390,
        396,
        677,
        910,
        981,
        264,
        870,
        943,
        196,
        371,
        532,
        301,
        916,
        404,
        635,
        329,
        805,
        535,
        415,
        640,
        678,
        884,
        705,
        645,
        538,
        850,
        604,
        885,
        50,
        164,
        773,
        5,
        766,
        63,
        481,
        578,
        731,
        485,
        687,
        191,
        534,
        950,
        594,
        182,
        36,
        940,
        882,
        258,
        220,
        457,
        622,
        89,
        710,
        994,
        23,
        440,
        993,
        289,
        162,
        284,
        158,
        476,
        67,
        483,
        290,
        707,
        750,
        292,
        985,
        81,
        105,
        625,
        94,
        843,
        774,
        591,
        859,
        644,
        540,
        261,
        323,
        829,
        756,
        9,
        996,
        808,
        198,
        240,
        799,
        873,
        518,
        346,
        982,
        824,
        135,
        377,
        276,
        403,
        281,
        242,
        53,
        592,
        907,
        691,
        145,
        339,
        567,
        659,
        78,
        406,
        193,
        502,
        1,
        395,
        572,
        152,
        963,
        37,
        596,
        718,
        570,
        86,
        577,
        286,
        358,
        783,
        684,
        496,
        208,
        255,
        401,
        667,
        795,
        156,
        490,
        47,
        724,
        333,
        206,
        944,
        888,
        549,
        901,
        797,
        849,
        414,
        421,
        815,
        42,
        951,
        717,
        657,
        291,
        209,
        897,
        435,
        585,
        388,
        357,
        93,
        34,
        555,
        581,
        600,
        479,
        327,
        300,
        874,
        429,
        736,
        387,
        740,
        893,
        792,
        989,
        91,
        895,
        248,
        259,
        66,
        305,
        243,
        494,
        328,
        961,
        668,
        571,
        458,
        630,
        520,
        690,
        638,
        376,
        378,
        695,
        433,
        675,
        813,
        169,
        760,
        253,
        825,
        975,
        72,
        674,
        177,
        402,
        807,
        363,
        451,
        838,
        32,
        558,
        689,
        966,
        527,
        777,
        185,
        506,
        561,
        637,
        256,
        924,
        227,
        954,
        603,
        172,
        890,
        115,
        456,
        121,
        937,
        530,
        517,
        297,
        223,
        841,
        619,
        598,
        280,
        602,
        987,
        550,
        514,
        879,
        471,
        946,
        199,
        881,
        439,
        796,
        772,
        304,
        852,
        922,
        896,
        75,
        33,
        413,
        876,
        219,
        552,
        835,
        704,
        95,
        564,
        563,
        666,
        763,
        964,
        941,
        831,
        735,
        109,
        114,
        671,
        801,
        113,
        277,
        681,
        372,
        126,
        998,
        857,
        984,
        306,
        142,
        478,
        632,
        465,
        326,
        375,
        398,
        149,
        755,
        155,
        283,
        785,
        367,
        48,
        721,
        287,
        624,
        186,
        589,
        698,
        887,
        929,
        541,
        547,
        573,
        448,
        856,
        337,
        79,
        303,
        889,
        362,
        537,
        192,
        554,
        238,
        531,
        837,
        65,
        29,
        560,
        568,
        416,
        195,
        133,
        137,
        369,
        665,
        732,
        782,
        163,
        221,
        599,
        294,
        652,
        556,
        737,
        938,
        461,
        597,
        751,
        791,
        19,
        544,
        830,
        462,
        268,
        235,
        117,
        428,
        660,
        228,
        493,
        8,
        508,
        612,
        132,
        932,
        57,
        833,
        865,
        347,
        682,
        41,
        828,
        949,
        210,
        134,
        786,
        147,
        649,
        765,
        979,
        331,
        183,
        557,
        373,
        997,
        712,
        542,
        746,
        15,
        504,
        25,
        545,
        189,
        802,
        204,
        59,
        623,
        693,
        701,
        469,
        334,
        112,
        267,
        314,
        394,
        510,
        584,
        252,
        683,
        764,
        270,
        969,
        374,
        379,
        761,
        269,
        17,
        44,
        39,
        516,
        970,
        525,
        262,
        60,
        282,
        639,
        634,
        662,
        921,
        241,
        529,
        330,
        43,
        521,
        757,
        846,
        313,
        441,
        382,
        385,
        24,
        342,
        714,
        138,
        499,
        139,
        443,
        967,
        85,
        194,
        988,
        446,
        116,
        325,
        663,
        68,
        438,
        643,
        368,
        473,
        97,
        713,
        741,
        945,
        171,
        247,
        263,
        272,
        569,
        847,
        244,
        468,
        700,
        664,
        397,
        526,
        474,
        76,
        586,
        477,
        762,
        175,
        271,
        470,
        905,
        324,
        322,
        715,
        257,
        871,
        464,
        463,
        288,
        84,
        229,
        688,
        711,
        821,
        275,
        778,
        107,
        618,
        880,
        361,
        427,
        273,
        507,
        482,
        886,
        934,
        744,
        654,
        533,
        920,
        176,
        628,
        909,
        6,
        77,
        748,
        738,
        207,
        190,
        699,
        615,
        973,
        307,
        809,
        587,
        753,
        392,
        442,
        336,
        251,
        670,
        939,
        614,
        159,
        562,
        83,
        340,
        217,
        576,
        366,
        676,
        794,
        87,
        214,
        38,
        914,
        606,
        819,
        878,
        971,
        119,
        460,
        915,
        759,
        617,
        445,
        947,
        524,
        71,
        931,
        265,
        894,
        848,
        200,
        814,
        980,
        40,
        553,
        726,
        927,
        706,
        11,
        781,
        812,
        620,
        317,
        181,
        595,
        669,
        141,
        180,
        130,
        266,
        407,
        21,
        769,
        100,
        822,
        771,
        877,
        869,
        900,
        528,
        410,
        444,
        810,
        703,
        913,
        898,
        467,
        449,
        608,
        722,
        293,
        685,
        128,
        842,
        319,
        338,
        631,
        864,
        899,
        203,
        789,
        519,
        500,
        827,
        92,
        202,
        302,
        788,
        22,
        51,
        99,
        702,
        174,
        923,
        151,
        694,
        308,
        580,
        539,
        904,
        758,
        431,
        770,
        926,
        862,
        661,
        249,
        752,
        811,
        168,
        225,
        480,
        10,
        425,
        936,
        391,
        144,
        727,
        977,
        803,
        823,
        959,
        990,
        484,
        426,
        360,
        160
    ],
    "Global Optimum": 0,
    "Algorithm": "Genetic algorithm",
    "Parameters": {
        "population": 30,
        "offspring": 30,
        "mutation probability": 0.001,
        "crossover probability": 0.9
    },
    "Fitness": 1376093,
    "Solution": [
        868,
        633,
        872,
        315,
        359,
        739,
        226,
        501,
        498,
        61,
        237,
        318,
        593,
        165,
        420,
        957,
        489,
        696,
        636,
        260,
        883,
        609,
        82,
        131,
        26,
        418,
        136,
        233,
        512,
        728,
        826,
        157,
        106,
        166,
        725,
        853,
        437,
        918,
        749,
        352,
        582,
        503,
        285,
        20,
        148,
        754,
        953,
        454,
        215,
        88,
        745,
        629,
        933,
        408,
        952,
        123,
        129,
        978,
        866,
        295,
        309,
        455,
        551,
        312,
        341,
        610,
        513,
        381,
        709,
        184,
        958,
        178,
        69,
        839,
        54,
        511,
        316,
        348,
        863,
        642,
        793,
        730,
        332,
        861,
        101,
        170,
        972,
        205,
        505,
        365,
        49,
        925,
        515,
        491,
        840,
        834,
        102,
        350,
        948,
        321,
        393,
        673,
        110,
        716,
        56,
        213,
        860,
        383,
        775,
        167,
        854,
        697,
        779,
        960,
        120,
        798,
        222,
        836,
        605,
        389,
        942,
        583,
        616,
        405,
        995,
        800,
        224,
        543,
        250,
        298,
        70,
        124,
        486,
        780,
        650,
        692,
        466,
        143,
        310,
        911,
        601,
        974,
        12,
        523,
        254,
        211,
        452,
        956,
        122,
        891,
        55,
        686,
        45,
        653,
        647,
        607,
        450,
        161,
        74,
        648,
        201,
        2,
        400,
        18,
        154,
        311,
        747,
        111,
        432,
        902,
        73,
        832,
        246,
        434,
        906,
        239,
        588,
        991,
        453,
        679,
        344,
        992,
        816,
        103,
        720,
        986,
        245,
        641,
        118,
        279,
        892,
        672,
        343,
        274,
        820,
        968,
        733,
        908,
        98,
        188,
        231,
        230,
        28,
        488,
        216,
        965,
        729,
        999,
        46,
        150,
        96,
        0,
        278,
        349,
        655,
        962,
        412,
        919,
        236,
        903,
        976,
        917,
        335,
        409,
        776,
        355,
        212,
        912,
        187,
        867,
        646,
        536,
        296,
        436,
        851,
        767,
        509,
        80,
        62,
        153,
        7,
        197,
        559,
        818,
        127,
        723,
        423,
        31,
        475,
        30,
        627,
        845,
        719,
        90,
        411,
        955,
        497,
        173,
        459,
        4,
        353,
        613,
        844,
        232,
        417,
        565,
        787,
        351,
        492,
        399,
        590,
        742,
        817,
        734,
        806,
        804,
        935,
        64,
        125,
        626,
        13,
        546,
        743,
        472,
        784,
        855,
        140,
        858,
        495,
        658,
        3,
        930,
        566,
        708,
        58,
        621,
        386,
        52,
        108,
        680,
        380,
        146,
        447,
        320,
        27,
        424,
        522,
        384,
        487,
        218,
        179,
        234,
        354,
        422,
        356,
        790,
        104,
        16,
        370,
        983,
        768,
        875,
        575,
        574,
        345,
        651,
        299,
        14,
        928,
        419,
        364,
        430,
        579,
        656,
        35,
        548,
        611,
        390,
        396,
        677,
        910,
        981,
        264,
        870,
        943,
        196,
        371,
        532,
        301,
        916,
        404,
        635,
        329,
        805,
        535,
        415,
        640,
        678,
        884,
        705,
        645,
        538,
        850,
        604,
        885,
        50,
        164,
        773,
        5,
        766,
        63,
        481,
        578,
        731,
        485,
        687,
        191,
        534,
        950,
        594,
        182,
        36,
        940,
        882,
        258,
        220,
        457,
        622,
        89,
        710,
        994,
        23,
        440,
        993,
        289,
        162,
        284,
        158,
        476,
        67,
        483,
        290,
        707,
        750,
        292,
        985,
        81,
        105,
        625,
        94,
        843,
        774,
        591,
        859,
        644,
        540,
        261,
        323,
        829,
        756,
        9,
        996,
        808,
        198,
        240,
        799,
        873,
        518,
        346,
        982,
        824,
        135,
        377,
        276,
        403,
        281,
        242,
        53,
        592,
        907,
        691,
        145,
        339,
        567,
        659,
        78,
        406,
        193,
        502,
        1,
        395,
        572,
        152,
        963,
        37,
        596,
        718,
        570,
        86,
        577,
        286,
        358,
        783,
        684,
        496,
        208,
        255,
        401,
        667,
        795,
        156,
        490,
        47,
        724,
        333,
        206,
        944,
        888,
        549,
        901,
        797,
        849,
        414,
        421,
        815,
        42,
        951,
        717,
        657,
        291,
        209,
        897,
        435,
        585,
        388,
        357,
        93,
        34,
        555,
        581,
        600,
        479,
        327,
        300,
        874,
        429,
        736,
        387,
        740,
        893,
        792,
        989,
        91,
        895,
        248,
        259,
        66,
        305,
        243,
        494,
        328,
        961,
        668,
        571,
        458,
        630,
        520,
        690,
        638,
        376,
        378,
        695,
        433,
        675,
        813,
        169,
        760,
        253,
        825,
        975,
        72,
        674,
        177,
        402,
        807,
        363,
        451,
        838,
        32,
        558,
        689,
        966,
        527,
        777,
        185,
        506,
        561,
        637,
        256,
        924,
        227,
        954,
        603,
        172,
        890,
        115,
        456,
        121,
        937,
        530,
        517,
        297,
        223,
        841,
        619,
        598,
        280,
        602,
        987,
        550,
        514,
        879,
        471,
        946,
        199,
        881,
        439,
        796,
        772,
        304,
        852,
        922,
        896,
        75,
        33,
        413,
        876,
        219,
        552,
        835,
        704,
        95,
        564,
        563,
        666,
        763,
        964,
        941,
        831,
        735,
        109,
        114,
        671,
        801,
        113,
        277,
        681,
        372,
        126,
        998,
        857,
        984,
        306,
        142,
        478,
        632,
        465,
        326,
        375,
        398,
        149,
        755,
        155,
        283,
        785,
        367,
        48,
        721,
        287,
        624,
        186,
        589,
        698,
        887,
        929,
        541,
        547,
        573,
        448,
        856,
        337,
        79,
        303,
        889,
        362,
        537,
        192,
        554,
        238,
        531,
        837,
        65,
        29,
        560,
        568,
        416,
        195,
        133,
        137,
        369,
        665,
        732,
        782,
        163,
        221,
        599,
        294,
        652,
        556,
        737,
        938,
        461,
        597,
        751,
        791,
        19,
        544,
        830,
        462,
        268,
        235,
        117,
        428,
        660,
        228,
        493,
        8,
        508,
        612,
        132,
        932,
        57,
        833,
        865,
        347,
        682,
        41,
        828,
        949,
        210,
        134,
        786,
        147,
        649,
        765,
        979,
        331,
        183,
        557,
        373,
        997,
        712,
        542,
        746,
        15,
        504,
        25,
        545,
        189,
        802,
        204,
        59,
        623,
        693,
        701,
        469,
        334,
        112,
        267,
        314,
        394,
        510,
        584,
        252,
        683,
        764,
        270,
        969,
        374,
        379,
        761,
        269,
        17,
        44,
        39,
        516,
        970,
        525,
        262,
        60,
        282,
        639,
        634,
        662,
        921,
        241,
        529,
        330,
        43,
        521,
        757,
        846,
        313,
        441,
        382,
        385,
        24,
        342,
        714,
        138,
        499,
        139,
        443,
        967,
        85,
        194,
        988,
        446,
        116,
        325,
        663,
        68,
        438,
        643,
        368,
        473,
        97,
        713,
        741,
        945,
        171,
        247,
        263,
        272,
        569,
        847,
        244,
        468,
        700,
        664,
        397,
        526,
        474,
        76,
        586,
        477,
        762,
        175,
        271,
        470,
        905,
        324,
        322,
        715,
        257,
        871,
        464,
        463,
        288,
        84,
        229,
        688,
        711,
        821,
        275,
        778,
        107,
        618,
        880,
        361,
        427,
        273,
        507,
        482,
        886,
        934,
        744,
        654,
        533,
        920,
        176,
        628,
        909,
        6,
        77,
        748,
        738,
        207,
        190,
        699,
        615,
        973,
        307,
        809,
        587,
        753,
        392,
        442,
        336,
        251,
        670,
        939,
        614,
        159,
        562,
        83,
        340,
        217,
        576,
        366,
        676,
        794,
        87,
        214,
        38,
        914,
        606,
        819,
        878,
        971,
        119,
        460,
        915,
        759,
        617,
        445,
        947,
        524,
        71,
        931,
        265,
        894,
        848,
        200,
        814,
        980,
        40,
        553,
        726,
        927,
        706,
        11,
        781,
        812,
        620,
        317,
        181,
        595,
        669,
        141,
        180,
        130,
        266,
        407,
        21,
        769,
        100,
        822,
        771,
        877,
        869,
        900,
        528,
        410,
        444,
        810,
        703,
        913,
        898,
        467,
        449,
        608,
        722,
        293,
        685,
        128,
        842,
        319,
        338,
        631,
        864,
        899,
        203,
        789,
        519,
        500,
        827,
        92,
        202,
        302,
        788,
        22,
        51,
        99,
        702,
        174,
        923,
        151,
        694,
        308,
        580,
        539,
        904,
        758,
        431,
        770,
        926,
        862,
        661,
        249,
        752,
        811,
        168,
        225,
        480,
        10,
        425,
        936,
        391,
        144,
        727,
        977,
        803,
        823,
        959,
        990,
        484,
        426,
        360,
        160
    ],
    "Nb of functions evaluations": 200010,
    "Computational time in seconds": 2822.2811319828033,
    "Stopping criterion in evaluations": 200000
}